/*********************************************
 * OPL 12.6.0.0 Data
 * Author: Adrian Rodriguez Bazaga, Pau Rodriguez Esmerats
 * Creation Date: 06/12/2017 at 23:02:56
 *********************************************/

nNurses=141;
maxConsec=2;
maxPresence=7;
maxHours=5;
minHours=1;
hours=24;
demand= [20 19 34 31 19 34 31 19 22 13 0 4 0 7 2 7 2 5 2 3 28 45 19 38  ];
